(set-logic QF_BV)
(declare-fun _substvar_561_ () (_ BitVec 1))
(declare-fun _substvar_556_ () (_ BitVec 1))
(declare-fun _substvar_529_ () (_ BitVec 1))
(declare-fun _substvar_623_ () (_ BitVec 1))
(declare-fun _substvar_739_ () Bool)
(declare-fun _substvar_507_ () (_ BitVec 1))
(declare-fun _substvar_602_ () (_ BitVec 1))
(declare-fun _substvar_612_ () (_ BitVec 64))
(declare-fun _substvar_590_ () (_ BitVec 1))
(declare-fun _substvar_424_ () (_ BitVec 1))
(declare-fun _substvar_592_ () (_ BitVec 1))
(declare-fun _substvar_531_ () (_ BitVec 1))
(declare-fun _substvar_508_ () (_ BitVec 1))
(declare-fun _substvar_618_ () (_ BitVec 1))
(declare-fun _substvar_644_ () (_ BitVec 64))
(declare-fun _substvar_535_ () (_ BitVec 64))
(declare-fun _substvar_552_ () (_ BitVec 1))
(declare-fun _substvar_513_ () (_ BitVec 1))
(assert (= _substvar_535_ (bvadd (_ bv0 64) ((_ extract 63 0) (_ bv18446744073709551586 64)))))
(assert (= _substvar_612_ (bvmul _substvar_535_ _substvar_644_)))
(assert (= (= _substvar_529_ (_ bv1 1)) (bvsle (_ bv0 64) _substvar_612_)))
(assert (= _substvar_552_ _substvar_529_))
(assert (= true (bvsle _substvar_612_ _substvar_535_)))
(assert (= _substvar_508_ (bvand _substvar_552_ _substvar_590_)))
(assert (= _substvar_592_ (bvand _substvar_508_ _substvar_513_)))
(assert (= _substvar_602_ (bvand _substvar_592_ _substvar_618_)))
(assert (= _substvar_507_ _substvar_602_))
(assert (= _substvar_556_ (ite _substvar_739_ _substvar_507_ (_ bv0 1))))
(assert (= _substvar_623_ (bvand _substvar_424_ _substvar_556_)))
(assert (= _substvar_561_ (bvand _substvar_531_ _substvar_623_)))
(assert (= false (=> (= _substvar_561_ (_ bv1 1)) false)))
(check-sat)
(exit)
